Iteraciones:   263 

Costo         Vehículos     Tiempo [seg]
 1011,655      12            0,719 
 1011,655      12            1,172 
 1011,655      12            1,563 
 934,862       12            2 
 934,862       12            2,422 
 934,862       12            2,813 
 933,11        12            3,188 
 903,385       12            3,579 
 893,458       12            3,969 
 882,462       12            4,36 
 882,462       12            4,735 
 882,462       12            5,126 
 882,462       12            5,501 
 882,462       12            5,876 
 880,065       12            6,282 
 876,751       12            6,657 
 848,026       12            7,032 
 848,026       12            7,423 
 848,026       12            7,813 
 848,026       12            8,188 
 848,026       12            8,579 
 848,026       12            8,97 
 848,026       12            9,376 
 848,026       12            9,766 
 848,026       12            10,157 
 848,026       12            10,548 
 848,026       12            10,923 
 848,026       12            11,313 
 848,026       12            11,704 
 848,026       12            12,079 
 848,026       12            12,485 
 848,026       12            12,876 
 848,026       12            13,267 
 848,026       12            13,642 
 848,026       12            14,032 
 848,026       12            14,407 
 848,026       12            14,814 
 848,026       12            15,189 
 848,026       12            15,564 
 848,026       12            15,954 
 848,026       12            16,361 
 848,026       12            16,751 
 848,026       12            17,158 
 848,026       12            17,548 
 848,026       12            17,923 
 848,026       12            18,298 
 848,026       12            18,673 
 848,026       12            19,064 
 848,026       12            19,47 
 848,026       12            19,861 
 848,026       12            20,267 
 848,026       12            20,798 
 848,026       12            21,439 
 848,026       12            22,064 
 848,026       12            22,72 
 848,026       12            23,345 
 848,026       12            24,017 
 848,026       12            24,689 
 848,026       12            25,314 
 848,026       12            25,971 
 848,026       12            26,518 
 848,026       12            26,924 
 848,026       12            27,314 
 848,026       12            27,689 
 848,026       12            28,064 
 848,026       12            28,455 
 848,026       12            28,846 
 848,026       12            29,236 
 848,026       12            29,611 
 848,026       12            30,002 
 843,629       12            30,408 
 843,629       12            30,783 
 843,629       12            31,174 
 843,629       12            31,549 
 843,629       12            31,94 
 843,629       12            32,33 
 843,629       12            32,705 
 843,629       12            33,08 
 843,629       12            33,487 
 843,629       12            33,862 
 843,629       12            34,252 
 843,629       12            34,643 
 843,629       12            35,034 
 842,277       12            35,424 
 842,277       12            35,799 
 842,277       12            36,206 
 842,277       12            36,612 
 842,277       12            37,003 
 842,277       12            37,378 
 842,277       12            37,753 
 842,277       12            38,159 
 842,277       12            38,534 
 842,277       12            38,925 
 842,277       12            39,315 
 842,277       12            39,69 
 842,277       12            40,081 
 842,277       12            40,472 
 842,277       12            40,862 
 842,277       12            41,253 
 842,277       12            41,643 
 842,277       12            42,019 
 842,277       12            42,409 
 842,277       12            42,784 
 842,277       12            43,159 
 842,277       12            43,55 
 842,277       12            43,925 
 842,277       12            44,3 
 831,635       12            44,691 
 831,635       12            45,081 
 831,635       12            45,456 
 831,635       12            45,831 
 831,635       12            46,238 
 831,635       12            46,613 
 831,635       12            46,988 
 831,635       12            47,378 
 831,635       12            47,769 
 831,635       12            48,16 
 831,635       12            48,55 
 831,635       12            48,941 
 831,635       12            49,316 
 831,635       12            49,707 
 831,635       12            50,097 
 831,635       12            50,472 
 823,297       12            50,847 
 823,297       12            51,238 
 823,297       12            51,66 
 823,297       12            52,035 
 823,297       12            52,425 
 823,297       12            52,8 
 823,297       12            53,207 
 823,297       12            53,597 
 823,297       12            53,988 
 823,297       12            54,379 
 823,297       12            54,754 
 823,297       12            55,144 
 823,297       12            55,519 
 823,297       12            55,91 
 823,297       12            56,301 
 823,297       12            56,676 
 823,297       12            57,082 
 823,297       12            57,473 
 823,297       12            57,848 
 823,297       12            58,238 
 823,112       12            58,613 
 823,112       12            58,973 
 823,112       12            59,363 
 823,112       12            59,754 
 823,112       12            60,145 
 823,112       12            60,52 
 823,112       12            60,895 
 823,112       12            61,285 
 823,112       12            61,66 
 823,112       12            62,051 
 823,112       12            62,426 
 821,328       12            62,801 
 821,328       12            63,176 
 821,328       12            63,567 
 821,328       12            63,957 
 821,328       12            64,348 
 821,328       12            64,723 
 821,328       12            65,098 
 821,328       12            65,489 
 819,557       12            65,864 
 819,557       12            66,254 
 819,557       12            66,661 
 819,557       12            67,051 
 819,557       12            67,426 
 819,557       12            67,817 
 819,557       12            68,208 
 819,557       12            68,598 
 819,557       12            68,989 
 819,557       12            69,364 
 819,557       12            69,755 
 819,557       12            70,13 
 819,557       12            70,505 
 819,557       12            70,911 
 819,557       12            71,302 
 819,557       12            71,692 
 819,557       12            72,067 
 819,557       12            72,458 
 819,557       12            72,833 
 819,557       12            73,208 
 819,557       12            73,583 
 819,557       12            73,989 
 819,557       12            74,364 
 819,557       12            74,755 
 819,557       12            75,13 
 819,557       12            75,505 
 819,557       12            75,927 
 819,557       12            76,302 
 819,557       12            76,677 
 819,557       12            77,052 
 819,557       12            77,443 
 819,557       12            77,818 
 819,557       12            78,193 
 819,557       12            78,583 
 819,557       12            78,958 
 819,557       12            79,333 
 819,557       12            79,724 
 819,557       12            80,099 
 819,557       12            80,474 
 819,557       12            80,849 
 819,557       12            81,24 
 819,557       12            81,615 
 819,557       12            82,021 
 819,557       12            82,427 
 819,557       12            82,802 
 819,557       12            83,193 
 819,557       12            83,568 
 819,557       12            83,959 
 819,557       12            84,334 
 819,557       12            84,74 
 819,557       12            85,115 
 819,557       12            85,521 
 819,557       12            85,896 
 819,557       12            86,303 
 819,557       12            86,678 
 819,557       12            87,068 
 819,557       12            87,443 
 819,557       12            87,818 
 819,557       12            88,193 
 819,557       12            88,584 
 819,557       12            88,959 
 819,557       12            89,334 
 819,557       12            89,725 
 819,557       12            90,1 
 819,557       12            90,49 
 819,557       12            90,865 
 819,557       12            91,256 
 819,557       12            91,647 
 819,557       12            92,022 
 819,557       12            92,412 
 819,557       12            92,803 
 819,557       12            93,194 
 819,557       12            93,584 
 819,557       12            93,959 
 819,557       12            94,366 
 819,557       12            94,741 
 819,557       12            95,116 
 819,557       12            95,491 
 819,557       12            95,881 
 819,557       12            96,256 
 819,557       12            96,631 
 819,557       12            97,006 
 819,557       12            97,381 
 819,557       12            97,772 
 819,557       12            98,147 
 819,557       12            98,538 
 819,557       12            98,913 
 819,557       12            99,288 
 819,557       12            99,678 
 819,557       12            100,053 
 819,557       12            100,429 
 819,557       12            100,788 
 819,557       12            101,179 
 819,557       12            101,554 
 819,557       12            101,929 
 819,557       12            102,319 
 819,557       12            102,71 
 819,557       12            103,085 
 819,557       12            103,476 
 819,557       12            103,851 
 819,557       12            104,226 
